RT is False
Default write of storage_offers_DA.csv just to have a file (but constraint should be inactive)
Reading model...
...model read.
creating competitive generators file...
...competitive generators recorded.
Loading data...
.. day-ahead data with real-time VRE data read.
Compiling instance...
...instance created.
Creating Offer Mitigation (model will solve as dispatch if TRUE)...
Solving...

Welcome to IBM(R) ILOG(R) CPLEX(R) Interactive Optimizer 12.9.0.0
  with Simplex, Mixed Integer & Barrier Optimizers
5725-A06 5725-A29 5724-Y48 5724-Y49 5724-Y54 5724-Y55 5655-Y21
Copyright IBM Corp. 1988, 2019.  All Rights Reserved.

Type 'help' for a list of available commands.
Type 'help' followed by a command name for more
information on commands.

CPLEX> Logfile 'cplex.log' closed.
Logfile 'C:\Users\llavin\Desktop\test919\logs\tmpelm60bim.cplex.log' open.
CPLEX> New value for parallel optimization mode: -1
CPLEX> New value for mixed integer optimality gap tolerance: 0.01
CPLEX> New value for integrality tolerance: 1e-09
CPLEX> New value for feasibility tolerance: 0.01
CPLEX> New value for deterministic time limit in ticks: 75000
CPLEX> Problem 'C:\Users\llavin\Desktop\test919\logs\tmp1fagxb0d.pyomo.lp' read.
Read time = 0.06 sec. (3.04 ticks)
CPLEX> Problem name         : C:\Users\llavin\Desktop\test919\logs\tmp1fagxb0d.pyomo.lp
Objective sense      : Minimize
Variables            :   26081  [Nneg: 1,  Box: 21616,  Free: 4464]
Objective nonzeros   :    2496
Linear constraints   :   27515  [Less: 14006,  Greater: 4416,  Equal: 9093]
  Nonzeros           :   89267
  RHS nonzeros       :   12271

Variables            : Min LB: -5000.000        Max UB: 1000000.       
Objective nonzeros   : Min   : 15.73158         Max   : 124.0997       
Linear constraints   :
  Nonzeros           : Min   : 0.8500000        Max   : 3000.000       
  RHS nonzeros       : Min   : 0.008333333      Max   : 5000.000       
CPLEX> CPXPARAM_Parallel                                -1
CPXPARAM_Simplex_Tolerances_Feasibility          0.01
CPXPARAM_DetTimeLimit                            75000
CPXPARAM_MIP_Tolerances_MIPGap                   0.01
CPXPARAM_MIP_Tolerances_Integrality              1.0000000000000001e-09
Parallel mode: opportunistic, using up to 32 threads for concurrent optimization.
Tried aggregator 1 time.
LP Presolve eliminated 21353 rows and 15460 columns.
Aggregator did 768 substitutions.
Reduced LP has 5394 rows, 9853 columns, and 31818 nonzeros.
Presolve time = 0.06 sec. (30.44 ticks)
Symmetry aggregator did 5565 additional substitutions.

Iteration log . . .
Iteration:     1   Dual objective     =             0.000000
Perturbation started.
Iteration:   101   Dual objective     =             0.000000
Iteration:   326   Dual objective     =             1.229870
Iteration:   587   Dual objective     =             1.808338
Iteration:   858   Dual objective     =             1.941878
Iteration:  1053   Dual objective     =             2.054758
Iteration:  1321   Dual objective     =             2.107046
Iteration:  1573   Dual objective     =             2.136117
Iteration:  1792   Dual objective     =             2.163615
Iteration:  2014   Dual objective     =         33252.162728
Iteration:  2206   Dual objective     =         62995.587213
Iteration:  2415   Dual objective     =         88713.597350
Iteration:  2637   Dual objective     =        109140.561558
Iteration:  3020   Dual objective     =        112512.600174
Removing perturbation.

Dual crossover.
  Dual:  Fixing 8 variables.
Using devex.

Primal simplex solved model.


Primal simplex - Optimal:  Objective =  1.1251789285e+05
Solution time =    0.17 sec.  Iterations = 1570 (1072)
Deterministic time = 81.04 ticks  (471.17 ticks/sec)

CPLEX> Solution written to file 'C:\Users\llavin\Desktop\test919\logs\tmp5q8xz_jo.cplex.sol'.
CPLEX> Exporting results... 
...storage offer mitigation file created
Converting model to MPEC...
...converted
NOTE: initial MIP solve with only storage competitive to get feasible solution
Solving...

Welcome to IBM(R) ILOG(R) CPLEX(R) Interactive Optimizer 12.9.0.0
  with Simplex, Mixed Integer & Barrier Optimizers
5725-A06 5725-A29 5724-Y48 5724-Y49 5724-Y54 5724-Y55 5655-Y21
Copyright IBM Corp. 1988, 2019.  All Rights Reserved.

Type 'help' for a list of available commands.
Type 'help' followed by a command name for more
information on commands.

CPLEX> Logfile 'cplex.log' closed.
Logfile 'C:\Users\llavin\Desktop\test919\logs\tmpkg1fi9jg.cplex.log' open.
CPLEX> New value for parallel optimization mode: -1
CPLEX> New value for mixed integer optimality gap tolerance: 0.01
CPLEX> New value for integrality tolerance: 1e-09
CPLEX> New value for feasibility tolerance: 0.01
CPLEX> New value for deterministic time limit in ticks: 75000
CPLEX> Problem 'C:\Users\llavin\Desktop\test919\logs\tmpx5nh_jj1.pyomo.lp' read.
Read time = 0.23 sec. (14.78 ticks)
CPLEX> Problem name         : C:\Users\llavin\Desktop\test919\logs\tmpx5nh_jj1.pyomo.lp
Objective sense      : Maximize
Variables            :   53805  [Nneg: 1,  Box: 22000,  Free: 4464,
                                 Binary: 27340]
Objective nonzeros   :    8980
Linear constraints   :  123205  [Less: 41346,  Greater: 59096,  Equal: 22763]
  Nonzeros           :  291801
  RHS nonzeros       :   67427

Variables            : Min LB: -5000.000        Max UB: 1000000.       
Objective nonzeros   : Min   : 0.008333333      Max   : 820.8667       
Linear constraints   :
  Nonzeros           : Min   : 0.008333333      Max   : 1000000.       
  RHS nonzeros       : Min   : 0.008333333      Max   : 1000000.       
CPLEX> CPXPARAM_Parallel                                -1
CPXPARAM_Simplex_Tolerances_Feasibility          0.01
CPXPARAM_DetTimeLimit                            75000
CPXPARAM_MIP_Tolerances_MIPGap                   0.01
CPXPARAM_MIP_Tolerances_Integrality              1.0000000000000001e-09
Tried aggregator 3 times.
MIP Presolve eliminated 88604 rows and 18906 columns.
MIP Presolve added 3385 rows and 0 columns.
MIP Presolve modified 24866 coefficients.
Aggregator did 12986 substitutions.
Reduced MIP has 25000 rows, 21359 columns, and 71327 nonzeros.
Reduced MIP has 8426 binaries, 0 generals, 0 SOSs, and 0 indicators.
Presolve time = 0.30 sec. (173.65 ticks)
Probing fixed 389 vars, tightened 2846 bounds.
Probing time = 1.23 sec. (893.27 ticks)
Tried aggregator 2 times.
MIP Presolve eliminated 879 rows and 780 columns.
MIP Presolve modified 2192 coefficients.
Aggregator did 41 substitutions.
Reduced MIP has 24080 rows, 20538 columns, and 68656 nonzeros.
Reduced MIP has 8037 binaries, 0 generals, 0 SOSs, and 0 indicators.
Presolve time = 0.11 sec. (68.71 ticks)
Probing time = 0.05 sec. (15.89 ticks)
Clique table members: 6442.
MIP emphasis: balance optimality and feasibility.
MIP search method: dynamic search.
Parallel mode: opportunistic, using up to 32 threads.
Root relaxation solution time = 0.36 sec. (297.94 ticks)

        Nodes                                         Cuts/
   Node  Left     Objective  IInf  Best Integer    Best Bound    ItCnt     Gap

      0     0     6542.4389  1629                   6542.4389     6066         
*     0     0      integral     0     6542.4389     6542.4389     6066    0.00%
Elapsed time = 4.03 sec. (3031.14 ticks, tree = 0.01 MB, solutions = 1)

Root node processing (before b&c):
  Real time             =    4.05 sec. (3033.09 ticks)
Parallel b&c, 32 threads:
  Real time             =    0.00 sec. (0.00 ticks)
  Sync time (average)   =    0.00 sec.
  Wait time (average)   =    0.00 sec.
                          ------------
Total (root+branch&cut) =    4.05 sec. (3033.09 ticks)

Solution pool: 1 solution saved.

MIP - Integer optimal solution:  Objective =  6.5424389275e+03
Solution time =    4.06 sec.  Iterations = 6066  Nodes = 0
Deterministic time = 3033.24 ticks  (746.74 ticks/sec)

CPLEX> Incumbent solution written to file 'C:\Users\llavin\Desktop\test919\logs\tmpz59r018l.cplex.sol'.
CPLEX> NOTE: no warmstart specified for MIP iteration, default behavior is true
NOTE: resolving with all competitive generators using storage-only solution to warmstart
Solving...

Welcome to IBM(R) ILOG(R) CPLEX(R) Interactive Optimizer 12.9.0.0
  with Simplex, Mixed Integer & Barrier Optimizers
5725-A06 5725-A29 5724-Y48 5724-Y49 5724-Y54 5724-Y55 5655-Y21
Copyright IBM Corp. 1988, 2019.  All Rights Reserved.

Type 'help' for a list of available commands.
Type 'help' followed by a command name for more
information on commands.

CPLEX> Logfile 'cplex.log' closed.
Logfile 'C:\Users\llavin\Desktop\test919\logs\tmptes05hpp.cplex.log' open.
CPLEX> New value for parallel optimization mode: -1
CPLEX> New value for mixed integer optimality gap tolerance: 0.01
CPLEX> New value for integrality tolerance: 1e-09
CPLEX> New value for feasibility tolerance: 0.01
CPLEX> New value for deterministic time limit in ticks: 75000
CPLEX> Problem 'C:\Users\llavin\Desktop\test919\logs\tmpd8_h066b.pyomo.lp' read.
Read time = 0.23 sec. (14.81 ticks)
CPLEX> MIP start file 'C:\Users\llavin\Desktop\test919\logs\tmp5dnnht6z.cplex.mst' read.
CPLEX> Problem name         : C:\Users\llavin\Desktop\test919\logs\tmpd8_h066b.pyomo.lp
Objective sense      : Maximize
Variables            :   54525  [Nneg: 1,  Box: 22720,  Free: 4464,
                                 Binary: 27340]
Objective nonzeros   :    9676
Linear constraints   :  123205  [Less: 41346,  Greater: 59096,  Equal: 22763]
  Nonzeros           :  291801
  RHS nonzeros       :   67427

Variables            : Min LB: -5000.000        Max UB: 1000000.       
Objective nonzeros   : Min   : 0.008333333      Max   : 778.7167       
Linear constraints   :
  Nonzeros           : Min   : 0.008333333      Max   : 1000000.       
  RHS nonzeros       : Min   : 0.008333333      Max   : 1000000.       
CPLEX> CPXPARAM_Parallel                                -1
CPXPARAM_Simplex_Tolerances_Feasibility          0.01
CPXPARAM_DetTimeLimit                            75000
CPXPARAM_MIP_Tolerances_MIPGap                   0.01
CPXPARAM_MIP_Tolerances_Integrality              1.0000000000000001e-09
Warning:  No solution found from 1 MIP starts.
Retaining values of one MIP start for possible repair.
Tried aggregator 3 times.
MIP Presolve eliminated 88604 rows and 19626 columns.
MIP Presolve added 3385 rows and 0 columns.
MIP Presolve modified 24866 coefficients.
Aggregator did 12986 substitutions.
Reduced MIP has 25000 rows, 21359 columns, and 71327 nonzeros.
Reduced MIP has 8426 binaries, 0 generals, 0 SOSs, and 0 indicators.
Presolve time = 0.28 sec. (174.02 ticks)
Probing fixed 389 vars, tightened 2846 bounds.
Probing time = 1.22 sec. (893.27 ticks)
Tried aggregator 2 times.
MIP Presolve eliminated 879 rows and 780 columns.
MIP Presolve modified 2192 coefficients.
Aggregator did 41 substitutions.
Reduced MIP has 24080 rows, 20538 columns, and 68656 nonzeros.
Reduced MIP has 8037 binaries, 0 generals, 0 SOSs, and 0 indicators.
Presolve time = 0.11 sec. (68.71 ticks)
Probing time = 0.05 sec. (15.89 ticks)
Clique table members: 6442.
MIP emphasis: balance optimality and feasibility.
MIP search method: dynamic search.
Parallel mode: opportunistic, using up to 32 threads.
Root relaxation solution time = 0.38 sec. (293.55 ticks)

        Nodes                                         Cuts/
   Node  Left     Objective  IInf  Best Integer    Best Bound    ItCnt     Gap

      0     0   154332.9542  1779                 154332.9542     6060         
      0     0   149527.2810   730                   Cuts: 802     6484         
      0     0   148658.1785   629                   Cuts: 341     6658         
      0     0   148439.6266   607                   Cuts: 201     6748         
      0     0   148385.2877   576                   Cuts: 120     6804         
      0     0   148374.1824   557                   Cuts: 102     6836         
      0     0   148374.1609   553                    Cuts: 48     6850         
      0     0   148374.1609   550                    Cuts: 63     6865         
Repair heuristic found nothing.
      0    30    infeasible                          Cuts: 50     7901         
Elapsed time = 12.70 sec. (7403.15 ticks, tree = 0.04 MB, solutions = 0)
    293    61    91178.2232   431                 140759.3836    12352         
    758   111   119395.8682   433                 131790.7573    17393         
   1304   313    66405.8727   358                 131790.7573    26208         
   1889  1124    24326.7046   336                 131790.7573    43537         
   2548  1248    14188.9147   328                 131790.7573    45183         
   3286  1490    51991.2444   353                 131790.7573    48772         
   4099  2755    28804.1576   268                 131790.7573    61203         
   5007  2928    44811.6837   256                 131790.7573    62114         
   5985  3298    49347.6395   229                 131790.7573    64146         
   9818  7557     2647.3299   242                 131790.7573    73328         
Elapsed time = 30.91 sec. (10506.67 ticks, tree = 62.93 MB, solutions = 1)
* 10308  7141      integral     0    -2390.3146   131790.7573    73132     --- 
* 11040  7523      integral     0    40811.2051   131790.7573    73323  222.93%
  11985  3932    infeasible          40811.2051    68780.9904   103071   68.53%
  13576   278        cutoff          40811.2051    64709.9734   109943   58.56%
  14487  1316    43549.9137    75    40811.2051    63133.5451   132579   54.70%
  16906  1701        cutoff          43708.9886    62600.9154   140821   43.22%
  19983  2338    50781.4321    20    52213.8979    58039.9066   167281   11.16%
* 22695  1134      integral     0    53476.2688    56508.0873   194661    5.67%
  25694  1761    53982.2432    80    53987.9585    55528.5115   213581    2.85%
  28049  1577    53988.2582    21    54218.8848    54911.9914   219157    1.28%
Elapsed time = 80.97 sec. (25281.03 ticks, tree = 12.74 MB, solutions = 30)
  28804  2075    54219.1845    46    54218.8848    54911.9914   233003    1.28%

GUB cover cuts applied:  2
Clique cuts applied:  20
Cover cuts applied:  34
Implied bound cuts applied:  75
Flow cuts applied:  1472
Mixed integer rounding cuts applied:  335
Gomory fractional cuts applied:  100

Root node processing (before b&c):
  Real time             =   10.98 sec. (7377.17 ticks)
Parallel b&c, 32 threads:
  Real time             =   70.44 sec. (19424.76 ticks)
  Sync time (average)   =    2.32 sec.
  Wait time (average)   =    0.25 sec.
                          ------------
Total (root+branch&cut) =   81.42 sec. (26801.93 ticks)

Solution pool: 30 solutions saved.

MIP - Integer optimal, tolerance (0.01/1e-06):  Objective =  5.4218884838e+04
Current MIP best bound =  5.4759948207e+04 (gap = 541.063, 1.00%)
Solution time =   81.45 sec.  Iterations = 253185  Nodes = 28840 (2126)
Deterministic time = 26802.08 ticks  (329.05 ticks/sec)

CPLEX> Incumbent solution written to file 'C:\Users\llavin\Desktop\test919\logs\tmpmifwqz0s.cplex.sol'.
CPLEX> Exporting results... 
